100
128
30
48
12
23
56
15
21
35
32
28
15
48
46
7
13
39
4
42
10
56
23
6
12
38
35
24
34
56
15
5
36
60
26
42
42
16
12
38
20
7
21
30
41
44
50
38
40
51
28
12
13
40
64
24
22
36
58
32
56
46
29
45
31
30
25
26
37
22
34
14
28
20
48
32
10
57
59
42
28
3
28
28
26
64
42
56
54
47
64
30
60
26
45
29
37
45
30
38
6
60